c Counting Principle: 4 divided in parts of size 2.
c Generated with `cnfgen`
c (C) 2012-2018 Massimo Lauria <lauria.massimo@gmail.com>
c https://massimolauria.github.io/cnfgen
c
c COMMAND LINE: cnfgen count 4 2
c
p cnf 6 16
-1 -2 0
-1 -3 0
-2 -3 0
1 2 3 0
-1 -4 0
-1 -5 0
-4 -5 0
1 4 5 0
-2 -4 0
-2 -6 0
-4 -6 0
2 4 6 0
-3 -5 0
-3 -6 0
-5 -6 0
3 5 6 0
